language ESSENCE' 1.0
$ Minion SolverNodes: 58
$ Minion SolverTotalTime: 0.052783
$ Minion SolverTimeOut: 0
$ Savile Row TotalTime: 0.521
letting cells be [[1, 3], 
[1, 2], 
[1, 1], 
[2, 1], 
[3, 1], 
[4, 1], 
[4, 2], 
[4, 3], 
[4, 4], 
[3, 4], 
[2, 4], 
[2, 3], 
[3, 3], 
[3, 2]]
